p cnf 651 1204
1 21 24 51 52 0
1 21 24 51 -52 0
1 21 24 -51 52 0
1 21 24 -51 -52 0
-1 7 11 53 54 0
-1 7 11 53 -54 0
-1 7 11 -53 54 0
-1 7 11 -53 -54 0
5 -11 48 55 56 0
5 -11 48 55 -56 0
5 -11 48 -55 56 0
5 -11 48 -55 -56 0
5 7 -11 57 58 0
5 7 -11 57 -58 0
5 7 -11 -57 58 0
5 7 -11 -57 -58 0
5 21 34 59 60 0
5 21 34 59 -60 0
5 21 34 -59 60 0
5 21 34 -59 -60 0
-5 24 34 61 62 0
-5 24 34 61 -62 0
-5 24 34 -61 62 0
-5 24 34 -61 -62 0
-24 34 42 63 64 0
-24 34 42 63 -64 0
-24 34 42 -63 64 0
-24 34 42 -63 -64 0
21 -24 -42 65 66 0
21 -24 -42 65 -66 0
21 -24 -42 -65 66 0
21 -24 -42 -65 -66 0
16 17 42 67 68 0
16 17 42 67 -68 0
16 17 42 -67 68 0
16 17 42 -67 -68 0
16 -17 42 69 70 0
16 -17 42 69 -70 0
16 -17 42 -69 70 0
16 -17 42 -69 -70 0
15 31 42 71 72 0
15 31 42 71 -72 0
15 31 42 -71 72 0
15 31 42 -71 -72 0
15 -16 -31 73 74 0
15 -16 -31 73 -74 0
15 -16 -31 -73 74 0
15 -16 -31 -73 -74 0
15 -34 39 75 76 0
15 -34 39 75 -76 0
15 -34 39 -75 76 0
15 -34 39 -75 -76 0
38 -39 41 77 78 0
38 -39 41 77 -78 0
38 -39 41 -77 78 0
38 -39 41 -77 -78 0
-34 -38 -39 79 80 0
-34 -38 -39 79 -80 0
-34 -38 -39 -79 80 0
-34 -38 -39 -79 -80 0
15 40 -41 81 82 0
15 40 -41 81 -82 0
15 40 -41 -81 82 0
15 40 -41 -81 -82 0
15 -40 -41 83 84 0
15 -40 -41 83 -84 0
15 -40 -41 -83 84 0
15 -40 -41 -83 -84 0
21 45 50 85 86 0
21 45 50 85 -86 0
21 45 50 -85 86 0
21 45 50 -85 -86 0
21 -34 -45 87 88 0
21 -34 -45 87 -88 0
21 -34 -45 -87 88 0
21 -34 -45 -87 -88 0
-15 28 37 89 90 0
-15 28 37 89 -90 0
-15 28 37 -89 90 0
-15 28 37 -89 -90 0
-15 21 -50 91 92 0
-15 21 -50 91 -92 0
-15 21 -50 -91 92 0
-15 21 -50 -91 -92 0
-15 21 -30 93 94 0
-15 21 -30 93 -94 0
-15 21 -30 -93 94 0
-15 21 -30 -93 -94 0
-28 -34 -50 95 96 0
-28 -34 -50 95 -96 0
-28 -34 -50 -95 96 0
-28 -34 -50 -95 -96 0
9 -19 50 97 98 0
9 -19 50 97 -98 0
9 -19 50 -97 98 0
9 -19 50 -97 -98 0
16 -19 -50 99 100 0
16 -19 -50 99 -100 0
16 -19 -50 -99 100 0
16 -19 -50 -99 -100 0
9 -16 50 101 102 0
9 -16 50 101 -102 0
9 -16 50 -101 102 0
9 -16 50 -101 -102 0
9 -21 -50 103 104 0
9 -21 -50 103 -104 0
9 -21 -50 -103 104 0
9 -21 -50 -103 -104 0
-19 -21 32 105 106 0
-19 -21 32 105 -106 0
-19 -21 32 -105 106 0
-19 -21 32 -105 -106 0
4 -19 -21 107 108 0
4 -19 -21 107 -108 0
4 -19 -21 -107 108 0
4 -19 -21 -107 -108 0
-4 -19 -21 109 110 0
-4 -19 -21 109 -110 0
-4 -19 -21 -109 110 0
-4 -19 -21 -109 -110 0
17 23 -32 111 112 0
17 23 -32 111 -112 0
17 23 -32 -111 112 0
17 23 -32 -111 -112 0
17 -23 -28 113 114 0
17 -23 -28 113 -114 0
17 -23 -28 -113 114 0
17 -23 -28 -113 -114 0
6 9 26 115 116 0
6 9 26 115 -116 0
6 9 26 -115 116 0
6 9 26 -115 -116 0
9 -17 26 117 118 0
9 -17 26 117 -118 0
9 -17 26 -117 118 0
9 -17 26 -117 -118 0
-9 24 26 119 120 0
-9 24 26 119 -120 0
-9 24 26 -119 120 0
-9 24 26 -119 -120 0
12 22 24 121 122 0
12 22 24 121 -122 0
12 22 24 -121 122 0
12 22 24 -121 -122 0
12 -22 39 123 124 0
12 -22 39 123 -124 0
12 -22 39 -123 124 0
12 -22 39 -123 -124 0
12 -22 24 125 126 0
12 -22 24 125 -126 0
12 -22 24 -125 126 0
12 -22 24 -125 -126 0
7 24 38 127 128 0
7 24 38 127 -128 0
7 24 38 -127 128 0
7 24 38 -127 -128 0
-7 -19 38 129 130 0
-7 -19 38 129 -130 0
-7 -19 38 -129 130 0
-7 -19 38 -129 -130 0
-19 24 -26 131 132 0
-19 24 -26 131 -132 0
-19 24 -26 -131 132 0
-19 24 -26 -131 -132 0
1 -21 -24 133 134 0
1 -21 -24 133 -134 0
1 -21 -24 -133 134 0
1 -21 -24 -133 -134 0
-1 -21 -24 135 136 0
-1 -21 -24 135 -136 0
-1 -21 -24 -135 136 0
-1 -21 -24 -135 -136 0
19 24 -41 137 138 0
19 24 -41 137 -138 0
19 24 -41 -137 138 0
19 24 -41 -137 -138 0
19 -24 44 139 140 0
19 -24 44 139 -140 0
19 -24 44 -139 140 0
19 -24 44 -139 -140 0
19 -41 -44 141 142 0
19 -41 -44 141 -142 0
19 -41 -44 -141 142 0
19 -41 -44 -141 -142 0
11 19 20 143 144 0
11 19 20 143 -144 0
11 19 20 -143 144 0
11 19 20 -143 -144 0
-11 19 20 145 146 0
-11 19 20 145 -146 0
-11 19 20 -145 146 0
-11 19 20 -145 -146 0
-12 19 20 147 148 0
-12 19 20 147 -148 0
-12 19 20 -147 148 0
-12 19 20 -147 -148 0
14 -20 41 149 150 0
14 -20 41 149 -150 0
14 -20 41 -149 150 0
14 -20 41 -149 -150 0
-14 15 41 151 152 0
-14 15 41 151 -152 0
-14 15 41 -151 152 0
-14 15 41 -151 -152 0
22 27 -45 153 154 0
22 27 -45 153 -154 0
22 27 -45 -153 154 0
22 27 -45 -153 -154 0
-20 -22 27 155 156 0
-20 -22 27 155 -156 0
-20 -22 27 -155 156 0
-20 -22 27 -155 -156 0
1 -20 -45 157 158 0
1 -20 -45 157 -158 0
1 -20 -45 -157 158 0
1 -20 -45 -157 -158 0
-1 -20 -27 159 160 0
-1 -20 -27 159 -160 0
-1 -20 -27 -159 160 0
-1 -20 -27 -159 -160 0
6 19 41 161 162 0
6 19 41 161 -162 0
6 19 41 -161 162 0
6 19 41 -161 -162 0
9 31 33 163 164 0
9 31 33 163 -164 0
9 31 33 -163 164 0
9 31 33 -163 -164 0
-2 27 -31 165 166 0
-2 27 -31 165 -166 0
-2 27 -31 -165 166 0
-2 27 -31 -165 -166 0
-2 9 -31 167 168 0
-2 9 -31 167 -168 0
-2 9 -31 -167 168 0
-2 9 -31 -167 -168 0
-2 -9 38 169 170 0
-2 -9 38 169 -170 0
-2 -9 38 -169 170 0
-2 -9 38 -169 -170 0
-2 -6 -38 171 172 0
-2 -6 -38 171 -172 0
-2 -6 -38 -171 172 0
-2 -6 -38 -171 -172 0
1 -2 -33 173 174 0
1 -2 -33 173 -174 0
1 -2 -33 -173 174 0
1 -2 -33 -173 -174 0
-1 -2 -33 175 176 0
-1 -2 -33 175 -176 0
-1 -2 -33 -175 176 0
-1 -2 -33 -175 -176 0
-15 36 50 177 178 0
-15 36 50 177 -178 0
-15 36 50 -177 178 0
-15 36 50 -177 -178 0
4 6 31 179 180 0
4 6 31 179 -180 0
4 6 31 -179 180 0
4 6 31 -179 -180 0
-6 31 -50 181 182 0
-6 31 -50 181 -182 0
-6 31 -50 -181 182 0
-6 31 -50 -181 -182 0
4 -6 36 183 184 0
4 -6 36 183 -184 0
4 -6 36 -183 184 0
4 -6 36 -183 -184 0
-15 -36 48 185 186 0
-15 -36 48 185 -186 0
-15 -36 48 -185 186 0
-15 -36 48 -185 -186 0
-4 -15 50 187 188 0
-4 -15 50 187 -188 0
-4 -15 50 -187 188 0
-4 -15 50 -187 -188 0
5 -6 50 189 190 0
5 -6 50 189 -190 0
5 -6 50 -189 190 0
5 -6 50 -189 -190 0
-4 5 -48 191 192 0
-4 5 -48 191 -192 0
-4 5 -48 -191 192 0
-4 5 -48 -191 -192 0
-5 -6 -48 193 194 0
-5 -6 -48 193 -194 0
-5 -6 -48 -193 194 0
-5 -6 -48 -193 -194 0
30 38 42 195 196 0
30 38 42 195 -196 0
30 38 42 -195 196 0
30 38 42 -195 -196 0
-5 30 -38 197 198 0
-5 30 -38 197 -198 0
-5 30 -38 -197 198 0
-5 30 -38 -197 -198 0
10 30 -42 199 200 0
10 30 -42 199 -200 0
10 30 -42 -199 200 0
10 30 -42 -199 -200 0
30 -48 50 201 202 0
30 -48 50 201 -202 0
30 -48 50 -201 202 0
30 -48 50 -201 -202 0
-6 18 -48 203 204 0
-6 18 -48 203 -204 0
-6 18 -48 -203 204 0
-6 18 -48 -203 -204 0
6 18 -48 205 206 0
6 18 -48 205 -206 0
6 18 -48 -205 206 0
6 18 -48 -205 -206 0
-6 18 -37 207 208 0
-6 18 -37 207 -208 0
-6 18 -37 -207 208 0
-6 18 -37 -207 -208 0
-6 -18 50 209 210 0
-6 -18 50 209 -210 0
-6 -18 50 -209 210 0
-6 -18 50 -209 -210 0
5 10 25 211 212 0
5 10 25 211 -212 0
5 10 25 -211 212 0
5 10 25 -211 -212 0
2 5 -25 213 214 0
2 5 -25 213 -214 0
2 5 -25 -213 214 0
2 5 -25 -213 -214 0
2 -5 10 215 216 0
2 -5 10 215 -216 0
2 -5 10 -215 216 0
2 -5 10 -215 -216 0
-20 23 39 217 218 0
-20 23 39 217 -218 0
-20 23 39 -217 218 0
-20 23 39 -217 -218 0
2 -23 37 219 220 0
2 -23 37 219 -220 0
2 -23 37 -219 220 0
2 -23 37 -219 -220 0
-23 30 37 221 222 0
-23 30 37 221 -222 0
-23 30 37 -221 222 0
-23 30 37 -221 -222 0
-23 37 39 223 224 0
-23 37 39 223 -224 0
-23 37 39 -223 224 0
-23 37 39 -223 -224 0
-20 37 39 225 226 0
-20 37 39 225 -226 0
-20 37 39 -225 226 0
-20 37 39 -225 -226 0
4 -10 42 227 228 0
4 -10 42 227 -228 0
4 -10 42 -227 228 0
4 -10 42 -227 -228 0
4 37 -42 229 230 0
4 37 -42 229 -230 0
4 37 -42 -229 230 0
4 37 -42 -229 -230 0
-4 -10 18 231 232 0
-4 -10 18 231 -232 0
-4 -10 18 -231 232 0
-4 -10 18 -231 -232 0
-4 -14 18 233 234 0
-4 -14 18 233 -234 0
-4 -14 18 -233 234 0
-4 -14 18 -233 -234 0
-20 -23 -39 235 236 0
-20 -23 -39 235 -236 0
-20 -23 -39 -235 236 0
-20 -23 -39 -235 -236 0
-10 -18 37 237 238 0
-10 -18 37 237 -238 0
-10 -18 37 -237 238 0
-10 -18 37 -237 -238 0
32 38 41 239 240 0
32 38 41 239 -240 0
32 38 41 -239 240 0
32 38 41 -239 -240 0
-32 38 -50 241 242 0
-32 38 -50 241 -242 0
-32 38 -50 -241 242 0
-32 38 -50 -241 -242 0
3 32 -37 243 244 0
3 32 -37 243 -244 0
3 32 -37 -243 244 0
3 32 -37 -243 -244 0
-2 -17 -37 245 246 0
-2 -17 -37 245 -246 0
-2 -17 -37 -245 246 0
-2 -17 -37 -245 -246 0
30 39 47 247 248 0
30 39 47 247 -248 0
30 39 47 -247 248 0
30 39 47 -247 -248 0
-3 14 47 249 250 0
-3 14 47 249 -250 0
-3 14 47 -249 250 0
-3 14 47 -249 -250 0
-14 -24 47 251 252 0
-14 -24 47 251 -252 0
-14 -24 47 -251 252 0
-14 -24 47 -251 -252 0
29 -37 43 253 254 0
29 -37 43 253 -254 0
29 -37 43 -253 254 0
29 -37 43 -253 -254 0
-3 43 47 255 256 0
-3 43 47 255 -256 0
-3 43 47 -255 256 0
-3 43 47 -255 -256 0
-3 -39 -43 257 258 0
-3 -39 -43 257 -258 0
-3 -39 -43 -257 258 0
-3 -39 -43 -257 -258 0
2 -3 -47 259 260 0
2 -3 -47 259 -260 0
2 -3 -47 -259 260 0
2 -3 -47 -259 -260 0
-3 -32 -47 261 262 0
-3 -32 -47 261 -262 0
-3 -32 -47 -261 262 0
-3 -32 -47 -261 -262 0
2 -37 -47 263 264 0
2 -37 -47 263 -264 0
2 -37 -47 -263 264 0
2 -37 -47 -263 -264 0
2 -17 48 265 266 0
2 -17 48 265 -266 0
2 -17 48 -265 266 0
2 -17 48 -265 -266 0
2 26 -32 267 268 0
2 26 -32 267 -268 0
2 26 -32 -267 268 0
2 26 -32 -267 -268 0
5 -32 -48 269 270 0
5 -32 -48 269 -270 0
5 -32 -48 -269 270 0
5 -32 -48 -269 -270 0
-26 -32 -48 271 272 0
-26 -32 -48 271 -272 0
-26 -32 -48 -271 272 0
-26 -32 -48 -271 -272 0
-30 34 44 273 274 0
-30 34 44 273 -274 0
-30 34 44 -273 274 0
-30 34 44 -273 -274 0
-17 -30 -44 275 276 0
-17 -30 -44 275 -276 0
-17 -30 -44 -275 276 0
-17 -30 -44 -275 -276 0
24 -30 -34 277 278 0
24 -30 -34 277 -278 0
24 -30 -34 -277 278 0
24 -30 -34 -277 -278 0
6 -24 -30 279 280 0
6 -24 -30 279 -280 0
6 -24 -30 -279 280 0
6 -24 -30 -279 -280 0
2 -24 -30 281 282 0
2 -24 -30 281 -282 0
2 -24 -30 -281 282 0
2 -24 -30 -281 -282 0
-10 -30 -34 283 284 0
-10 -30 -34 283 -284 0
-10 -30 -34 -283 284 0
-10 -30 -34 -283 -284 0
3 37 45 285 286 0
3 37 45 285 -286 0
3 37 45 -285 286 0
3 37 45 -285 -286 0
3 -37 45 287 288 0
3 -37 45 287 -288 0
3 -37 45 -287 288 0
3 -37 45 -287 -288 0
-3 4 45 289 290 0
-3 4 45 289 -290 0
-3 4 45 -289 290 0
-3 4 45 -289 -290 0
-3 42 45 291 292 0
-3 42 45 291 -292 0
-3 42 45 -291 292 0
-3 42 45 -291 -292 0
-3 30 45 293 294 0
-3 30 45 293 -294 0
-3 30 45 -293 294 0
-3 30 45 -293 -294 0
-10 17 -25 295 296 0
-10 17 -25 295 -296 0
-10 17 -25 -295 296 0
-10 17 -25 -295 -296 0
8 -37 43 297 298 0
8 -37 43 297 -298 0
8 -37 43 -297 298 0
8 -37 43 -297 -298 0
-8 -37 43 299 300 0
-8 -37 43 299 -300 0
-8 -37 43 -299 300 0
-8 -37 43 -299 -300 0
20 23 -50 301 302 0
20 23 -50 301 -302 0
20 23 -50 -301 302 0
20 23 -50 -301 -302 0
23 33 -50 303 304 0
23 33 -50 303 -304 0
23 33 -50 -303 304 0
23 33 -50 -303 -304 0
28 -33 43 305 306 0
28 -33 43 305 -306 0
28 -33 43 -305 306 0
28 -33 43 -305 -306 0
28 -33 -43 307 308 0
28 -33 -43 307 -308 0
28 -33 -43 -307 308 0
28 -33 -43 -307 -308 0
8 -28 -38 309 310 0
8 -28 -38 309 -310 0
8 -28 -38 -309 310 0
8 -28 -38 -309 -310 0
8 -38 -45 311 312 0
8 -38 -45 311 -312 0
8 -38 -45 -311 312 0
8 -38 -45 -311 -312 0
-8 23 -28 313 314 0
-8 23 -28 313 -314 0
-8 23 -28 -313 314 0
-8 23 -28 -313 -314 0
-8 -21 -28 315 316 0
-8 -21 -28 315 -316 0
-8 -21 -28 -315 316 0
-8 -21 -28 -315 -316 0
17 25 29 317 318 0
17 25 29 317 -318 0
17 25 29 -317 318 0
17 25 29 -317 -318 0
31 -38 40 319 320 0
31 -38 40 319 -320 0
31 -38 40 -319 320 0
31 -38 40 -319 -320 0
9 31 -40 321 322 0
9 31 -40 321 -322 0
9 31 -40 -321 322 0
9 31 -40 -321 -322 0
-9 31 -40 323 324 0
-9 31 -40 323 -324 0
-9 31 -40 -323 324 0
-9 31 -40 -323 -324 0
-18 31 -40 325 326 0
-18 31 -40 325 -326 0
-18 31 -40 -325 326 0
-18 31 -40 -325 -326 0
22 25 -43 327 328 0
22 25 -43 327 -328 0
22 25 -43 -327 328 0
22 25 -43 -327 -328 0
17 -38 44 329 330 0
17 -38 44 329 -330 0
17 -38 44 -329 330 0
17 -38 44 -329 -330 0
-29 -31 32 331 332 0
-29 -31 32 331 -332 0
-29 -31 32 -331 332 0
-29 -31 32 -331 -332 0
17 -29 -48 333 334 0
17 -29 -48 333 -334 0
17 -29 -48 -333 334 0
17 -29 -48 -333 -334 0
-17 -31 35 335 336 0
-17 -31 35 335 -336 0
-17 -31 35 -335 336 0
-17 -31 35 -335 -336 0
-29 -31 -35 337 338 0
-29 -31 -35 337 -338 0
-29 -31 -35 -337 338 0
-29 -31 -35 -337 -338 0
25 -29 -47 339 340 0
25 -29 -47 339 -340 0
25 -29 -47 -339 340 0
25 -29 -47 -339 -340 0
25 -39 -47 341 342 0
25 -39 -47 341 -342 0
25 -39 -47 -341 342 0
25 -39 -47 -341 -342 0
6 -29 -44 343 344 0
6 -29 -44 343 -344 0
6 -29 -44 -343 344 0
6 -29 -44 -343 -344 0
-6 32 -44 345 346 0
-6 32 -44 345 -346 0
-6 32 -44 -345 346 0
-6 32 -44 -345 -346 0
-29 38 -44 347 348 0
-29 38 -44 347 -348 0
-29 38 -44 -347 348 0
-29 38 -44 -347 -348 0
-25 -29 -38 349 350 0
-25 -29 -38 349 -350 0
-25 -29 -38 -349 350 0
-25 -29 -38 -349 -350 0
-8 27 47 351 352 0
-8 27 47 351 -352 0
-8 27 47 -351 352 0
-8 27 47 -351 -352 0
-8 -27 44 353 354 0
-8 -27 44 353 -354 0
-8 -27 44 -353 354 0
-8 -27 44 -353 -354 0
-8 -22 -44 355 356 0
-8 -22 -44 355 -356 0
-8 -22 -44 -355 356 0
-8 -22 -44 -355 -356 0
7 8 41 357 358 0
7 8 41 357 -358 0
7 8 41 -357 358 0
7 8 41 -357 -358 0
7 -41 48 359 360 0
7 -41 48 359 -360 0
7 -41 48 -359 360 0
7 -41 48 -359 -360 0
13 27 45 361 362 0
13 27 45 361 -362 0
13 27 45 -361 362 0
13 27 45 -361 -362 0
-7 -13 45 363 364 0
-7 -13 45 363 -364 0
-7 -13 45 -363 364 0
-7 -13 45 -363 -364 0
-7 15 -45 365 366 0
-7 15 -45 365 -366 0
-7 15 -45 -365 366 0
-7 15 -45 -365 -366 0
-7 27 -31 367 368 0
-7 27 -31 367 -368 0
-7 27 -31 -367 368 0
-7 27 -31 -367 -368 0
-7 16 28 369 370 0
-7 16 28 369 -370 0
-7 16 28 -369 370 0
-7 16 28 -369 -370 0
-7 10 28 371 372 0
-7 10 28 371 -372 0
-7 10 28 -371 372 0
-7 10 28 -371 -372 0
-7 -28 -31 373 374 0
-7 -28 -31 373 -374 0
-7 -28 -31 -373 374 0
-7 -28 -31 -373 -374 0
9 -10 -31 375 376 0
9 -10 -31 375 -376 0
9 -10 -31 -375 376 0
9 -10 -31 -375 -376 0
8 10 -33 377 378 0
8 10 -33 377 -378 0
8 10 -33 -377 378 0
8 10 -33 -377 -378 0
10 25 -40 379 380 0
10 25 -40 379 -380 0
10 25 -40 -379 380 0
10 25 -40 -379 -380 0
-25 -33 -40 381 382 0
-25 -33 -40 381 -382 0
-25 -33 -40 -381 382 0
-25 -33 -40 -381 -382 0
-10 25 -33 383 384 0
-10 25 -33 383 -384 0
-10 25 -33 -383 384 0
-10 25 -33 -383 -384 0
8 -33 48 385 386 0
8 -33 48 385 -386 0
8 -33 48 -385 386 0
8 -33 48 -385 -386 0
8 -25 -48 387 388 0
8 -25 -48 387 -388 0
8 -25 -48 -387 388 0
8 -25 -48 -387 -388 0
23 33 48 389 390 0
23 33 48 389 -390 0
23 33 48 -389 390 0
23 33 48 -389 -390 0
22 33 48 391 392 0
22 33 48 391 -392 0
22 33 48 -391 392 0
22 33 48 -391 -392 0
12 -22 33 393 394 0
12 -22 33 393 -394 0
12 -22 33 -393 394 0
12 -22 33 -393 -394 0
12 -13 14 395 396 0
12 -13 14 395 -396 0
12 -13 14 -395 396 0
12 -13 14 -395 -396 0
-12 14 39 397 398 0
-12 14 39 397 -398 0
-12 14 39 -397 398 0
-12 14 39 -397 -398 0
-13 -14 39 399 400 0
-13 -14 39 399 -400 0
-13 -14 39 -399 400 0
-13 -14 39 -399 -400 0
6 -13 49 401 402 0
6 -13 49 401 -402 0
6 -13 49 -401 402 0
6 -13 49 -401 -402 0
-13 19 49 403 404 0
-13 19 49 403 -404 0
-13 19 49 -403 404 0
-13 19 49 -403 -404 0
21 30 -49 405 406 0
21 30 -49 405 -406 0
21 30 -49 -405 406 0
21 30 -49 -405 -406 0
-13 -21 -49 407 408 0
-13 -21 -49 407 -408 0
-13 -21 -49 -407 408 0
-13 -21 -49 -407 -408 0
-9 -39 -49 409 410 0
-9 -39 -49 409 -410 0
-9 -39 -49 -409 410 0
-9 -39 -49 -409 -410 0
4 46 -49 411 412 0
4 46 -49 411 -412 0
4 46 -49 -411 412 0
4 46 -49 -411 -412 0
-4 22 46 413 414 0
-4 22 46 413 -414 0
-4 22 46 -413 414 0
-4 22 46 -413 -414 0
-4 -22 37 415 416 0
-4 -22 37 415 -416 0
-4 -22 37 -415 416 0
-4 -22 37 -415 -416 0
-4 -13 -37 417 418 0
-4 -13 -37 417 -418 0
-4 -13 -37 -417 418 0
-4 -13 -37 -417 -418 0
-39 -46 -49 419 420 0
-39 -46 -49 419 -420 0
-39 -46 -49 -419 420 0
-39 -46 -49 -419 -420 0
12 -13 41 421 422 0
12 -13 41 421 -422 0
12 -13 41 -421 422 0
12 -13 41 -421 -422 0
12 -13 -41 423 424 0
12 -13 -41 423 -424 0
12 -13 -41 -423 424 0
12 -13 -41 -423 -424 0
-19 33 41 425 426 0
-19 33 41 425 -426 0
-19 33 41 -425 426 0
-19 33 41 -425 -426 0
-19 33 -41 427 428 0
-19 33 -41 427 -428 0
-19 33 -41 -427 428 0
-19 33 -41 -427 -428 0
-9 26 -27 429 430 0
-9 26 -27 429 -430 0
-9 26 -27 -429 430 0
-9 26 -27 -429 -430 0
2 16 -26 431 432 0
2 16 -26 431 -432 0
2 16 -26 -431 432 0
2 16 -26 -431 -432 0
14 16 -44 433 434 0
14 16 -44 433 -434 0
14 16 -44 -433 434 0
14 16 -44 -433 -434 0
-14 16 -26 435 436 0
-14 16 -26 435 -436 0
-14 16 -26 -435 436 0
-14 16 -26 -435 -436 0
-2 16 -26 437 438 0
-2 16 -26 437 -438 0
-2 16 -26 -437 438 0
-2 16 -26 -437 -438 0
-11 -12 13 439 440 0
-11 -12 13 439 -440 0
-11 -12 13 -439 440 0
-11 -12 13 -439 -440 0
-11 13 -14 441 442 0
-11 13 -14 441 -442 0
-11 13 -14 -441 442 0
-11 13 -14 -441 -442 0
3 22 25 443 444 0
3 22 25 443 -444 0
3 22 25 -443 444 0
3 22 25 -443 -444 0
22 -27 34 445 446 0
22 -27 34 445 -446 0
22 -27 34 -445 446 0
22 -27 34 -445 -446 0
-25 -27 -34 447 448 0
-25 -27 -34 447 -448 0
-25 -27 -34 -447 448 0
-25 -27 -34 -447 -448 0
3 -22 -27 449 450 0
3 -22 -27 449 -450 0
3 -22 -27 -449 450 0
3 -22 -27 -449 -450 0
1 11 12 451 452 0
1 11 12 451 -452 0
1 11 12 -451 452 0
1 11 12 -451 -452 0
11 -17 19 453 454 0
11 -17 19 453 -454 0
11 -17 19 -453 454 0
11 -17 19 -453 -454 0
1 11 -17 455 456 0
1 11 -17 455 -456 0
1 11 -17 -455 456 0
1 11 -17 -455 -456 0
1 -9 -11 457 458 0
1 -9 -11 457 -458 0
1 -9 -11 -457 458 0
1 -9 -11 -457 -458 0
-1 -9 32 459 460 0
-1 -9 32 459 -460 0
-1 -9 32 -459 460 0
-1 -9 32 -459 -460 0
7 -9 12 461 462 0
7 -9 12 461 -462 0
7 -9 12 -461 462 0
7 -9 12 -461 -462 0
-7 -9 32 463 464 0
-7 -9 32 463 -464 0
-7 -9 32 -463 464 0
-7 -9 32 -463 -464 0
-12 -27 32 465 466 0
-12 -27 32 465 -466 0
-12 -27 32 -465 466 0
-12 -27 32 -465 -466 0
16 26 44 467 468 0
16 26 44 467 -468 0
16 26 44 -467 468 0
16 26 44 -467 -468 0
11 -16 30 469 470 0
11 -16 30 469 -470 0
11 -16 30 -469 470 0
11 -16 30 -469 -470 0
11 -16 44 471 472 0
11 -16 44 471 -472 0
11 -16 44 -471 472 0
11 -16 44 -471 -472 0
-15 -16 44 473 474 0
-15 -16 44 473 -474 0
-15 -16 44 -473 474 0
-15 -16 44 -473 -474 0
11 13 26 475 476 0
11 13 26 475 -476 0
11 13 26 -475 476 0
11 13 26 -475 -476 0
-12 44 45 477 478 0
-12 44 45 477 -478 0
-12 44 45 -477 478 0
-12 44 45 -477 -478 0
43 44 -45 479 480 0
43 44 -45 479 -480 0
43 44 -45 -479 480 0
43 44 -45 -479 -480 0
-21 43 -45 481 482 0
-21 43 -45 481 -482 0
-21 43 -45 -481 482 0
-21 43 -45 -481 -482 0
-12 -43 -45 483 484 0
-12 -43 -45 483 -484 0
-12 -43 -45 -483 484 0
-12 -43 -45 -483 -484 0
41 42 -44 485 486 0
41 42 -44 485 -486 0
41 42 -44 -485 486 0
41 42 -44 -485 -486 0
-12 17 -41 487 488 0
-12 17 -41 487 -488 0
-12 17 -41 -487 488 0
-12 17 -41 -487 -488 0
-12 -17 -41 489 490 0
-12 -17 -41 489 -490 0
-12 -17 -41 -489 490 0
-12 -17 -41 -489 -490 0
-16 -28 47 491 492 0
-16 -28 47 491 -492 0
-16 -28 47 -491 492 0
-16 -28 47 -491 -492 0
-16 -28 -47 493 494 0
-16 -28 -47 493 -494 0
-16 -28 -47 -493 494 0
-16 -28 -47 -493 -494 0
-28 -29 -42 495 496 0
-28 -29 -42 495 -496 0
-28 -29 -42 -495 496 0
-28 -29 -42 -495 -496 0
-1 -16 25 497 498 0
-1 -16 25 497 -498 0
-1 -16 25 -497 498 0
-1 -16 25 -497 -498 0
-25 43 50 499 500 0
-25 43 50 499 -500 0
-25 43 50 -499 500 0
-25 43 50 -499 -500 0
-25 43 -50 501 502 0
-25 43 -50 501 -502 0
-25 43 -50 -501 502 0
-25 43 -50 -501 -502 0
-1 27 -43 503 504 0
-1 27 -43 503 -504 0
-1 27 -43 -503 504 0
-1 27 -43 -503 -504 0
-25 36 -43 505 506 0
-25 36 -43 505 -506 0
-25 36 -43 -505 506 0
-25 36 -43 -505 -506 0
13 -36 -43 507 508 0
13 -36 -43 507 -508 0
13 -36 -43 -507 508 0
13 -36 -43 -507 -508 0
-27 -36 -43 509 510 0
-27 -36 -43 509 -510 0
-27 -36 -43 -509 510 0
-27 -36 -43 -509 -510 0
1 10 18 511 512 0
1 10 18 511 -512 0
1 10 18 -511 512 0
1 10 18 -511 -512 0
10 -42 47 513 514 0
10 -42 47 513 -514 0
10 -42 47 -513 514 0
10 -42 47 -513 -514 0
-1 10 -47 515 516 0
-1 10 -47 515 -516 0
-1 10 -47 -515 516 0
-1 10 -47 -515 -516 0
-10 -16 18 517 518 0
-10 -16 18 517 -518 0
-10 -16 18 -517 518 0
-10 -16 18 -517 -518 0
28 40 47 519 520 0
28 40 47 519 -520 0
28 40 47 -519 520 0
28 40 47 -519 -520 0
7 27 48 521 522 0
7 27 48 521 -522 0
7 27 48 -521 522 0
7 27 48 -521 -522 0
3 27 40 523 524 0
3 27 40 523 -524 0
3 27 40 -523 524 0
3 27 40 -523 -524 0
3 40 -45 525 526 0
3 40 -45 525 -526 0
3 40 -45 -525 526 0
3 40 -45 -525 -526 0
3 7 -27 527 528 0
3 7 -27 527 -528 0
3 7 -27 -527 528 0
3 7 -27 -527 -528 0
3 40 -47 529 530 0
3 40 -47 529 -530 0
3 40 -47 -529 530 0
3 40 -47 -529 -530 0
-23 40 47 531 532 0
-23 40 47 531 -532 0
-23 40 47 -531 532 0
-23 40 47 -531 -532 0
-23 -26 -47 533 534 0
-23 -26 -47 533 -534 0
-23 -26 -47 -533 534 0
-23 -26 -47 -533 -534 0
-3 -26 40 535 536 0
-3 -26 40 535 -536 0
-3 -26 40 -535 536 0
-3 -26 40 -535 -536 0
28 42 -46 537 538 0
28 42 -46 537 -538 0
28 42 -46 -537 538 0
28 42 -46 -537 -538 0
28 -42 -46 539 540 0
28 -42 -46 539 -540 0
28 -42 -46 -539 540 0
28 -42 -46 -539 -540 0
-30 38 -46 541 542 0
-30 38 -46 541 -542 0
-30 38 -46 -541 542 0
-30 38 -46 -541 -542 0
-18 -38 -46 543 544 0
-18 -38 -46 543 -544 0
-18 -38 -46 -543 544 0
-18 -38 -46 -543 -544 0
-14 -18 -46 545 546 0
-14 -18 -46 545 -546 0
-14 -18 -46 -545 546 0
-14 -18 -46 -545 -546 0
1 -5 46 547 548 0
1 -5 46 547 -548 0
1 -5 46 -547 548 0
1 -5 46 -547 -548 0
-5 -12 46 549 550 0
-5 -12 46 549 -550 0
-5 -12 46 -549 550 0
-5 -12 46 -549 -550 0
-1 -5 46 551 552 0
-1 -5 46 551 -552 0
-1 -5 46 -551 552 0
-1 -5 46 -551 -552 0
13 23 32 553 554 0
13 23 32 553 -554 0
13 23 32 -553 554 0
13 23 32 -553 -554 0
13 15 23 555 556 0
13 15 23 555 -556 0
13 15 23 -555 556 0
13 15 23 -555 -556 0
13 33 -49 557 558 0
13 33 -49 557 -558 0
13 33 -49 -557 558 0
13 33 -49 -557 -558 0
-2 13 -49 559 560 0
-2 13 -49 559 -560 0
-2 13 -49 -559 560 0
-2 13 -49 -559 -560 0
23 -32 -42 561 562 0
23 -32 -42 561 -562 0
23 -32 -42 -561 562 0
23 -32 -42 -561 -562 0
34 -42 -46 563 564 0
34 -42 -46 563 -564 0
34 -42 -46 -563 564 0
34 -42 -46 -563 -564 0
-23 29 -32 565 566 0
-23 29 -32 565 -566 0
-23 29 -32 -565 566 0
-23 29 -32 -565 -566 0
15 -23 -29 567 568 0
15 -23 -29 567 -568 0
15 -23 -29 -567 568 0
15 -23 -29 -567 -568 0
-15 -32 -49 569 570 0
-15 -32 -49 569 -570 0
-15 -32 -49 -569 570 0
-15 -32 -49 -569 -570 0
28 -34 -42 571 572 0
28 -34 -42 571 -572 0
28 -34 -42 -571 572 0
28 -34 -42 -571 -572 0
7 29 -35 573 574 0
7 29 -35 573 -574 0
7 29 -35 -573 574 0
7 29 -35 -573 -574 0
-7 29 -35 575 576 0
-7 29 -35 575 -576 0
-7 29 -35 -575 576 0
-7 29 -35 -575 -576 0
29 31 -35 577 578 0
29 31 -35 577 -578 0
29 31 -35 -577 578 0
29 31 -35 -577 -578 0
20 -35 46 579 580 0
20 -35 46 579 -580 0
20 -35 46 -579 580 0
20 -35 46 -579 -580 0
-20 -35 46 581 582 0
-20 -35 46 581 -582 0
-20 -35 46 -581 582 0
-20 -35 46 -581 -582 0
-18 33 -39 583 584 0
-18 33 -39 583 -584 0
-18 33 -39 -583 584 0
-18 33 -39 -583 -584 0
-18 -33 34 585 586 0
-18 -33 34 585 -586 0
-18 -33 34 -585 586 0
-18 -33 34 -585 -586 0
-18 -34 46 587 588 0
-18 -34 46 587 -588 0
-18 -34 46 -587 588 0
-18 -34 46 -587 -588 0
4 39 46 589 590 0
4 39 46 589 -590 0
4 39 46 -589 590 0
4 39 46 -589 -590 0
8 35 -36 591 592 0
8 35 -36 591 -592 0
8 35 -36 -591 592 0
8 35 -36 -591 -592 0
-8 35 -36 593 594 0
-8 35 -36 593 -594 0
-8 35 -36 -593 594 0
-8 35 -36 -593 -594 0
11 22 36 595 596 0
11 22 36 595 -596 0
11 22 36 -595 596 0
11 22 36 -595 -596 0
5 -11 22 597 598 0
5 -11 22 597 -598 0
5 -11 22 -597 598 0
5 -11 22 -597 -598 0
14 36 40 599 600 0
14 36 40 599 -600 0
14 36 40 -599 600 0
14 36 40 -599 -600 0
18 36 -40 601 602 0
18 36 -40 601 -602 0
18 36 -40 -601 602 0
18 36 -40 -601 -602 0
-5 -18 36 603 604 0
-5 -18 36 603 -604 0
-5 -18 36 -603 604 0
-5 -18 36 -603 -604 0
-5 14 -39 605 606 0
-5 14 -39 605 -606 0
-5 14 -39 -605 606 0
-5 14 -39 -605 -606 0
14 -22 26 607 608 0
14 -22 26 607 -608 0
14 -22 26 -607 608 0
14 -22 26 -607 -608 0
14 -22 49 609 610 0
14 -22 49 609 -610 0
14 -22 49 -609 610 0
14 -22 49 -609 -610 0
-26 36 -49 611 612 0
-26 36 -49 611 -612 0
-26 36 -49 -611 612 0
-26 36 -49 -611 -612 0
-4 -14 -24 613 614 0
-4 -14 -24 613 -614 0
-4 -14 -24 -613 614 0
-4 -14 -24 -613 -614 0
21 -30 48 615 616 0
21 -30 48 615 -616 0
21 -30 48 -615 616 0
21 -30 48 -615 -616 0
18 -20 -36 617 618 0
18 -20 -36 617 -618 0
18 -20 -36 -617 618 0
18 -20 -36 -617 -618 0
6 -15 -46 619 620 0
6 -15 -46 619 -620 0
6 -15 -46 -619 620 0
6 -15 -46 -619 -620 0
-10 20 29 621 622 0
-10 20 29 621 -622 0
-10 20 29 -621 622 0
-10 20 29 -621 -622 0
4 20 -44 623 624 0
4 20 -44 623 -624 0
4 20 -44 -623 624 0
4 20 -44 -623 -624 0
34 -35 -40 625 626 0
34 -35 -40 625 -626 0
34 -35 -40 -625 626 0
34 -35 -40 -625 -626 0
35 36 -36 627 628 0
35 36 -36 627 -628 0
35 36 -36 -627 628 0
35 36 -36 -627 -628 0
29 -35 49 629 630 0
29 -35 49 629 -630 0
29 -35 49 -629 630 0
29 -35 49 -629 -630 0
-8 -36 631 632 633 0
-8 -36 631 632 -633 0
-8 -36 631 -632 633 0
-8 -36 631 -632 -633 0
-8 -36 -631 632 633 0
-8 -36 -631 632 -633 0
-8 -36 -631 -632 633 0
-8 -36 -631 -632 -633 0
8 26 34 634 635 0
8 26 34 634 -635 0
8 26 34 -634 635 0
8 26 34 -634 -635 0
-11 -14 49 636 637 0
-11 -14 49 636 -637 0
-11 -14 49 -636 637 0
-11 -14 49 -636 -637 0
-8 -26 35 638 639 0
-8 -26 35 638 -639 0
-8 -26 35 -638 639 0
-8 -26 35 -638 -639 0
-11 35 -43 640 641 0
-11 35 -43 640 -641 0
-11 35 -43 -640 641 0
-11 35 -43 -640 -641 0
20 29 -40 642 643 0
20 29 -40 642 -643 0
20 29 -40 -642 643 0
20 29 -40 -642 -643 0
20 35 49 644 645 0
20 35 49 644 -645 0
20 35 49 -644 645 0
20 35 49 -644 -645 0
17 -35 49 646 647 0
17 -35 49 646 -647 0
17 -35 49 -646 647 0
17 -35 49 -646 -647 0
35 -46 49 648 649 0
35 -46 49 648 -649 0
35 -46 49 -648 649 0
35 -46 49 -648 -649 0
6 35 49 650 651 0
6 35 49 650 -651 0
6 35 49 -650 651 0
6 35 49 -650 -651 0
